&control
    calculation='scf'
    restart_mode='from_scratch'
    pseudo_dir = '/home/raja/pseudo'
    outdir='./'
    tstress=.true.
    tprnfor=.true.
/
&system
    ibrav=0
    celldm(1)=27.03
    nat=162
    ntyp=2
    nbnd=740
    ecutwfc=60.0d0
    ecutrho=600.0d0
    occupations='fixed'
/
&electrons
    conv_thr = 2.0d-9
    mixing_beta = 0.70d0
/
&ions
    ion_dynamics='damp'
    pot_extrapolation='atomic'
    wfc_extrapolation='none'
/
ATOMIC_SPECIES
  Sn  118.710d0  Sn.pbesol-dn-rrkjus.UPF
  O   15.9990d0  O.pbesol-nl-rrkjus.UPF
CELL_PARAMETERS {alat}
   1.0  0.0  0.0000
   0.0  1.0  0.0000
   0.0  0.0  0.6746
ATOMIC_POSITIONS {crystal}
 Sn   0.0000000000000000  0.0000000000000000  0.0000000000000000
 Sn   0.3333333333333333  0.0000000000000000  0.0000000000000000
 Sn   0.6666666666666666  0.0000000000000000  0.0000000000000000
 Sn   0.0000000000000000  0.3333333333333333  0.0000000000000000
 Sn   0.3333333333333333  0.3333333333333333  0.0000000000000000
 Sn   0.6666666666666666  0.3333333333333333  0.0000000000000000
 Sn   0.0000000000000000  0.6666666666666666  0.0000000000000000
 Sn   0.3333333333333333  0.6666666666666666  0.0000000000000000
 Sn   0.6666666666666666  0.6666666666666666  0.0000000000000000
 Sn   0.0000000000000000  0.0000000000000000  0.3333333333333333
 Sn   0.3333333333333333  0.0000000000000000  0.3333333333333333
 Sn   0.6666666666666666  0.0000000000000000  0.3333333333333333
 Sn   0.0000000000000000  0.3333333333333333  0.3333333333333333
 Sn   0.3333333333333333  0.3333333333333333  0.3333333333333333
 Sn   0.6666666666666666  0.3333333333333333  0.3333333333333333
 Sn   0.0000000000000000  0.6666666666666666  0.3333333333333333
 Sn   0.3333333333333333  0.6666666666666666  0.3333333333333333
 Sn   0.6666666666666666  0.6666666666666666  0.3333333333333333
 Sn   0.0000000000000000  0.0000000000000000  0.6666666666666666
 Sn   0.3333333333333333  0.0000000000000000  0.6666666666666666
 Sn   0.6666666666666666  0.0000000000000000  0.6666666666666666
 Sn   0.0000000000000000  0.3333333333333333  0.6666666666666666
 Sn   0.3333333333333333  0.3333333333333333  0.6666666666666666
 Sn   0.6666666666666666  0.3333333333333333  0.6666666666666666
 Sn   0.0000000000000000  0.6666666666666666  0.6666666666666666
 Sn   0.3333333333333333  0.6666666666666666  0.6666666666666666
 Sn   0.6666666666666666  0.6666666666666666  0.6666666666666666
 Sn   0.1666666666666667  0.1666666666666667  0.1666666666666667
 Sn   0.5000000000000000  0.1666666666666667  0.1666666666666667
 Sn   0.8333333333333333  0.1666666666666667  0.1666666666666667
 Sn   0.1666666666666667  0.5000000000000000  0.1666666666666667
 Sn   0.5000000000000000  0.5000000000000000  0.1666666666666667
 Sn   0.8333333333333333  0.5000000000000000  0.1666666666666667
 Sn   0.1666666666666667  0.8333333333333333  0.1666666666666667
 Sn   0.5000000000000000  0.8333333333333333  0.1666666666666667
 Sn   0.8333333333333333  0.8333333333333333  0.1666666666666667
 Sn   0.1666666666666667  0.1666666666666667  0.5000000000000000
 Sn   0.5000000000000000  0.1666666666666667  0.5000000000000000
 Sn   0.8333333333333333  0.1666666666666667  0.5000000000000000
 Sn   0.1666666666666667  0.5000000000000000  0.5000000000000000
 Sn   0.5000000000000000  0.5000000000000000  0.5000000000000000
 Sn   0.8333333333333333  0.5000000000000000  0.5000000000000000
 Sn   0.1666666666666667  0.8333333333333333  0.5000000000000000
 Sn   0.5000000000000000  0.8333333333333333  0.5000000000000000
 Sn   0.8333333333333333  0.8333333333333333  0.5000000000000000
 Sn   0.1666666666666667  0.1666666666666667  0.8333333333333333
 Sn   0.5000000000000000  0.1666666666666667  0.8333333333333333
 Sn   0.8333333333333333  0.1666666666666667  0.8333333333333333
 Sn   0.1666666666666667  0.5000000000000000  0.8333333333333333
 Sn   0.5000000000000000  0.5000000000000000  0.8333333333333333
 Sn   0.8333333333333333  0.5000000000000000  0.8333333333333333
 Sn   0.1666666666666667  0.8333333333333333  0.8333333333333333
 Sn   0.5000000000000000  0.8333333333333333  0.8333333333333333
 Sn   0.8333333333333333  0.8333333333333333  0.8333333333333333
  O   0.1020675353333333  0.1020675353333333  0.0000000000000000
  O   0.4354008686666667  0.1020675353333333  0.0000000000000000
  O   0.7687342019999999  0.1020675353333333  0.0000000000000000
  O   0.1020675353333333  0.4354008686666667  0.0000000000000000
  O   0.4354008686666667  0.4354008686666667  0.0000000000000000
  O   0.7687342019999999  0.4354008686666667  0.0000000000000000
  O   0.1020675353333333  0.7687342019999999  0.0000000000000000
  O   0.4354008686666667  0.7687342019999999  0.0000000000000000
  O   0.7687342019999999  0.7687342019999999  0.0000000000000000
  O   0.1020675353333333  0.1020675353333333  0.3333333333333333
  O   0.4354008686666667  0.1020675353333333  0.3333333333333333
  O   0.7687342019999999  0.1020675353333333  0.3333333333333333
  O   0.1020675353333333  0.4354008686666667  0.3333333333333333
  O   0.4354008686666667  0.4354008686666667  0.3333333333333333
  O   0.7687342019999999  0.4354008686666667  0.3333333333333333
  O   0.1020675353333333  0.7687342019999999  0.3333333333333333
  O   0.4354008686666667  0.7687342019999999  0.3333333333333333
  O   0.7687342019999999  0.7687342019999999  0.3333333333333333
  O   0.1020675353333333  0.1020675353333333  0.6666666666666666
  O   0.4354008686666667  0.1020675353333333  0.6666666666666666
  O   0.7687342019999999  0.1020675353333333  0.6666666666666666
  O   0.1020675353333333  0.4354008686666667  0.6666666666666666
  O   0.4354008686666667  0.4354008686666667  0.6666666666666666
  O   0.7687342019999999  0.4354008686666667  0.6666666666666666
  O   0.1020675353333333  0.7687342019999999  0.6666666666666666
  O   0.4354008686666667  0.7687342019999999  0.6666666666666666
  O   0.7687342019999999  0.7687342019999999  0.6666666666666666
  O   0.2312657980000000  0.2312657980000000  0.0000000000000000
  O   0.5645991313333333  0.2312657980000000  0.0000000000000000
  O   0.8979324646666665  0.2312657980000000  0.0000000000000000
  O   0.2312657980000000  0.5645991313333333  0.0000000000000000
  O   0.5645991313333333  0.5645991313333333  0.0000000000000000
  O   0.8979324646666665  0.5645991313333333  0.0000000000000000
  O   0.2312657980000000  0.8979324646666665  0.0000000000000000
  O   0.5645991313333333  0.8979324646666665  0.0000000000000000
  O   0.8979324646666665  0.8979324646666665  0.0000000000000000
  O   0.2312657980000000  0.2312657980000000  0.3333333333333333
  O   0.5645991313333333  0.2312657980000000  0.3333333333333333
  O   0.8979324646666665  0.2312657980000000  0.3333333333333333
  O   0.2312657980000000  0.5645991313333333  0.3333333333333333
  O   0.5645991313333333  0.5645991313333333  0.3333333333333333
  O   0.8979324646666665  0.5645991313333333  0.3333333333333333
  O   0.2312657980000000  0.8979324646666665  0.3333333333333333
  O   0.5645991313333333  0.8979324646666665  0.3333333333333333
  O   0.8979324646666665  0.8979324646666665  0.3333333333333333
  O   0.2312657980000000  0.2312657980000000  0.6666666666666666
  O   0.5645991313333333  0.2312657980000000  0.6666666666666666
  O   0.8979324646666665  0.2312657980000000  0.6666666666666666
  O   0.2312657980000000  0.5645991313333333  0.6666666666666666
  O   0.5645991313333333  0.5645991313333333  0.6666666666666666
  O   0.8979324646666665  0.5645991313333333  0.6666666666666666
  O   0.2312657980000000  0.8979324646666665  0.6666666666666666
  O   0.5645991313333333  0.8979324646666665  0.6666666666666666
  O   0.8979324646666665  0.8979324646666665  0.6666666666666666
  O   0.0645991313333333  0.2687342020000000  0.1666666666666667
  O   0.3979324646666667  0.2687342020000000  0.1666666666666667
  O   0.7312657980000000  0.2687342020000000  0.1666666666666667
  O   0.0645991313333333  0.6020675353333333  0.1666666666666667
  O   0.3979324646666667  0.6020675353333333  0.1666666666666667
  O   0.7312657980000000  0.6020675353333333  0.1666666666666667
  O   0.0645991313333333  0.9354008686666667  0.1666666666666667
  O   0.3979324646666667  0.9354008686666667  0.1666666666666667
  O   0.7312657980000000  0.9354008686666667  0.1666666666666667
  O   0.0645991313333333  0.2687342020000000  0.5000000000000000
  O   0.3979324646666667  0.2687342020000000  0.5000000000000000
  O   0.7312657980000000  0.2687342020000000  0.5000000000000000
  O   0.0645991313333333  0.6020675353333333  0.5000000000000000
  O   0.3979324646666667  0.6020675353333333  0.5000000000000000
  O   0.7312657980000000  0.6020675353333333  0.5000000000000000
  O   0.0645991313333333  0.9354008686666667  0.5000000000000000
  O   0.3979324646666667  0.9354008686666667  0.5000000000000000
  O   0.7312657980000000  0.9354008686666667  0.5000000000000000
  O   0.0645991313333333  0.2687342020000000  0.8333333333333333
  O   0.3979324646666667  0.2687342020000000  0.8333333333333333
  O   0.7312657980000000  0.2687342020000000  0.8333333333333333
  O   0.0645991313333333  0.6020675353333333  0.8333333333333333
  O   0.3979324646666667  0.6020675353333333  0.8333333333333333
  O   0.7312657980000000  0.6020675353333333  0.8333333333333333
  O   0.0645991313333333  0.9354008686666667  0.8333333333333333
  O   0.3979324646666667  0.9354008686666667  0.8333333333333333
  O   0.7312657980000000  0.9354008686666667  0.8333333333333333
  O   0.2687342020000000  0.0645991313333333  0.1666666666666667
  O   0.6020675353333333  0.0645991313333333  0.1666666666666667
  O   0.9354008686666667  0.0645991313333333  0.1666666666666667
  O   0.2687342020000000  0.3979324646666667  0.1666666666666667
  O   0.6020675353333333  0.3979324646666667  0.1666666666666667
  O   0.9354008686666667  0.3979324646666667  0.1666666666666667
  O   0.2687342020000000  0.7312657980000000  0.1666666666666667
  O   0.6020675353333333  0.7312657980000000  0.1666666666666667
  O   0.9354008686666667  0.7312657980000000  0.1666666666666667
  O   0.2687342020000000  0.0645991313333333  0.5000000000000000
  O   0.6020675353333333  0.0645991313333333  0.5000000000000000
  O   0.9354008686666667  0.0645991313333333  0.5000000000000000
  O   0.2687342020000000  0.3979324646666667  0.5000000000000000
  O   0.6020675353333333  0.3979324646666667  0.5000000000000000
  O   0.9354008686666667  0.3979324646666667  0.5000000000000000
  O   0.2687342020000000  0.7312657980000000  0.5000000000000000
  O   0.6020675353333333  0.7312657980000000  0.5000000000000000
  O   0.9354008686666667  0.7312657980000000  0.5000000000000000
  O   0.2687342020000000  0.0645991313333333  0.8333333333333333
  O   0.6020675353333333  0.0645991313333333  0.8333333333333333
  O   0.9354008686666667  0.0645991313333333  0.8333333333333333
  O   0.2687342020000000  0.3979324646666667  0.8333333333333333
  O   0.6020675353333333  0.3979324646666667  0.8333333333333333
  O   0.9354008686666667  0.3979324646666667  0.8333333333333333
  O   0.2687342020000000  0.7312657980000000  0.8333333333333333
  O   0.6020675353333333  0.7312657980000000  0.8333333333333333
  O   0.9354008686666667  0.7312657980000000  0.8333333333333333
K_POINTS {automatic}
 2 2 3 1 1 1
