&control
    calculation='scf'
    restart_mode='from_scratch'
    pseudo_dir = '/home/raja/pseudo'
    outdir='./'
    tstress=.true.
    tprnfor=.true.
/
&system
    ibrav=0
    celldm(1)=18.02
    nat=48
    ntyp=2
    nbnd=224
    ecutwfc=60.0d0
    ecutrho=600.0d0
    occupations='fixed'
/
&electrons
    conv_thr = 2.0d-9
    mixing_beta = 0.70d0
/
&ions
    ion_dynamics='damp'
    pot_extrapolation='atomic'
    wfc_extrapolation='none'
/
ATOMIC_SPECIES
  Sn  118.710d0  Sn.pbesol-dn-rrkjus.UPF
  O   15.9990d0  O.pbesol-nl-rrkjus.UPF
CELL_PARAMETERS {alat}
   1.0  0.0  0.0000
   0.0  1.0  0.0000
   0.0  0.0  0.6746
ATOMIC_POSITIONS {crystal}
 Sn   0.000000000  0.000000000  0.00
 Sn   0.500000000  0.000000000  0.00
 Sn   0.000000000  0.500000000  0.00
 Sn   0.500000000  0.500000000  0.00
 Sn   0.000000000  0.000000000  0.50
 Sn   0.500000000  0.000000000  0.50
 Sn   0.000000000  0.500000000  0.50
 Sn   0.500000000  0.500000000  0.50
 Sn   0.250000000  0.250000000  0.25
 Sn   0.750000000  0.250000000  0.25
 Sn   0.250000000  0.750000000  0.25
 Sn   0.750000000  0.750000000  0.25
 Sn   0.250000000  0.250000000  0.75
 Sn   0.750000000  0.250000000  0.75
 Sn   0.250000000  0.750000000  0.75
 Sn   0.750000000  0.750000000  0.75
  O   0.153101303  0.153101303  0.00
  O   0.653101303  0.153101303  0.00
  O   0.153101303  0.653101303  0.00
  O   0.653101303  0.653101303  0.00
  O   0.153101303  0.153101303  0.50
  O   0.653101303  0.153101303  0.50
  O   0.153101303  0.653101303  0.50
  O   0.653101303  0.653101303  0.50
  O   0.346898697  0.346898697  0.00
  O   0.846898697  0.346898697  0.00
  O   0.346898697  0.846898697  0.00
  O   0.846898697  0.846898697  0.00
  O   0.346898697  0.346898697  0.50
  O   0.846898697  0.346898697  0.50
  O   0.346898697  0.846898697  0.50
  O   0.846898697  0.846898697  0.50
  O   0.096898697  0.403101303  0.25
  O   0.596898697  0.403101303  0.25
  O   0.096898697  0.903101303  0.25
  O   0.596898697  0.903101303  0.25
  O   0.096898697  0.403101303  0.75
  O   0.596898697  0.403101303  0.75
  O   0.096898697  0.903101303  0.75
  O   0.596898697  0.903101303  0.75
  O   0.403101303  0.096898697  0.25
  O   0.903101303  0.096898697  0.25
  O   0.403101303  0.596898697  0.25
  O   0.903101303  0.596898697  0.25
  O   0.403101303  0.096898697  0.75
  O   0.903101303  0.096898697  0.75
  O   0.403101303  0.596898697  0.75
  O   0.903101303  0.596898697  0.75
K_POINTS {automatic}
 4 4 6 1 1 1
